
Gurobi 10.0.3 (linux64, gurobi_cl) logging started Thu Nov  2 11:33:58 2023

Set parameter Username
Set parameter TimeLimit to value 3600
Set parameter LogFile to value "RCPSP_45.log"
Set parameter Threads to value 32
Academic license - for non-commercial use only - expires 2024-10-30
Using license file /home/jrivera6/gurobi-licenses/v1003/compute-0-35/gurobi.lic

Gurobi Optimizer version 10.0.3 build v10.0.3rc0 (linux64)
Copyright (c) 2023, Gurobi Optimization, LLC

Read MPS format model from file RCPSP_45.mps
Reading time = 0.01 seconds
RCPSP_45: 5329 rows, 2080 columns, 17044 nonzeros

CPU model: Intel(R) Xeon(R) Gold 6130 CPU @ 2.10GHz, instruction set [SSE2|AVX|AVX2|AVX512]
Thread count: 32 physical cores, 32 logical processors, using up to 32 threads

Optimize a model with 5329 rows, 2080 columns and 17044 nonzeros
Model fingerprint: 0x7ef96085
Variable types: 32 continuous, 2048 integer (2048 binary)
Coefficient statistics:
  Matrix range     [1e+00, 2e+02]
  Objective range  [1e+00, 1e+00]
  Bounds range     [1e+00, 1e+00]
  RHS range        [1e+00, 2e+02]
Presolve removed 3009 rows and 1141 columns
Presolve time: 0.15s
Presolved: 2320 rows, 939 columns, 7439 nonzeros
Variable types: 31 continuous, 908 integer (908 binary)

Root relaxation: objective 6.500000e+01, 309 iterations, 0.00 seconds (0.00 work units)

    Nodes    |    Current Node    |     Objective Bounds      |     Work
 Expl Unexpl |  Obj  Depth IntInf | Incumbent    BestBd   Gap | It/Node Time

     0     0   65.00000    0    8          -   65.00000      -     -    0s
     0     0   65.00000    0   61          -   65.00000      -     -    0s
     0     0   65.00000    0   63          -   65.00000      -     -    0s
     0     0   65.00000    0   63          -   65.00000      -     -    0s
     0     0   70.00000    0   22          -   70.00000      -     -    0s
H    0     0                     106.0000000   70.00000  34.0%     -    0s
H    0     0                     105.0000000   70.00000  33.3%     -    0s
     0     0   70.00000    0   21  105.00000   70.00000  33.3%     -    0s
     0     0   70.00000    0   40  105.00000   70.00000  33.3%     -    1s
     0     0   70.00000    0   38  105.00000   70.00000  33.3%     -    1s
H    0     0                      91.0000000   70.00000  23.1%     -    1s
     0     0   70.00000    0   65   91.00000   70.00000  23.1%     -    1s
     0     0   70.00000    0   58   91.00000   70.00000  23.1%     -    1s
H    0     0                      90.0000000   70.00000  22.2%     -    1s
     0     0   70.00000    0   10   90.00000   70.00000  22.2%     -    1s
H    0     0                      81.0000000   70.00000  13.6%     -    1s
     0     0   70.00000    0   17   81.00000   70.00000  13.6%     -    1s
     0     0   70.00000    0   14   81.00000   70.00000  13.6%     -    1s
     0     0   70.00000    0   17   81.00000   70.00000  13.6%     -    1s
     0     0   70.00000    0   18   81.00000   70.00000  13.6%     -    1s
     0     0   70.00000    0    7   81.00000   70.00000  13.6%     -    2s
     0     0   70.00000    0   14   81.00000   70.00000  13.6%     -    2s
     0     0   70.00000    0   19   81.00000   70.00000  13.6%     -    2s
     0     0   70.00000    0   18   81.00000   70.00000  13.6%     -    2s
     0     0   70.00000    0   23   81.00000   70.00000  13.6%     -    2s
H    0     0                      77.0000000   70.00000  9.09%     -    2s
     0     0   70.00000    0   44   77.00000   70.00000  9.09%     -    2s
     0     0   70.00000    0   20   77.00000   70.00000  9.09%     -    2s
     0     0   70.00000    0   20   77.00000   70.00000  9.09%     -    3s
     0     0   70.00000    0    8   77.00000   70.00000  9.09%     -    8s
     0     0   70.00000    0   38   77.00000   70.00000  9.09%     -    9s
     0     0   70.00000    0   46   77.00000   70.00000  9.09%     -   10s
     0     0   73.00000    0   25   77.00000   73.00000  5.19%     -   11s
     0     0   73.00000    0   25   77.00000   73.00000  5.19%     -   11s
     0     0   76.00000    0   12   77.00000   76.00000  1.30%     -   12s
     0     0   76.00000    0   21   77.00000   76.00000  1.30%     -   12s
H    0     0                      76.0000000   76.00000  0.00%     -   13s

Cutting planes:
  Learned: 1
  Gomory: 1
  Cover: 6
  Implied bound: 5
  Clique: 14
  MIR: 45
  StrongCG: 3
  RLT: 2
  Relax-and-lift: 11

Explored 1 nodes (10442 simplex iterations) in 13.80 seconds (0.88 work units)
Thread count was 32 (of 32 available processors)

Solution count 7: 76 77 81 ... 106

Optimal solution found (tolerance 1.00e-04)
Best objective 7.600000000000e+01, best bound 7.600000000000e+01, gap 0.0000%

Wrote result file 'RCPSP_45.sol'

